NAME: rd100
COMMENT: Quick (5min) local search tour for rd100 (9549.402404563709)
TYPE: TOUR
DIMENSION: 100
TOUR_SECTION: 1 60 8 69 15 63 86 97 67 13 49 21 75 82 85 12 9 26 17 72 70 38 54 73 50 46 56 19 37 28 93 59 58 89 2 23 88 84 31 24 25 43 42 11 61 5 22 41 34 7 40 55 39 96 35 29 44 100 52 45 16 94 98 66 76 95 77 27 92 74 20 78 32 4 3 33 10 79 6 53 99 47 57 36 64 91 81 30 48 80 65 90 51 83 68 71 18 62 87 14 -1
EOF